Version identifier: 12.10.0.0 | 2019-11-26 | 843d4de
CPXPARAM_LPMethod                                4
CPXPARAM_Threads                                 1
CPXPARAM_SolutionType                            2
CPXPARAM_TimeLimit                               10000
Tried aggregator 1 time.
LP Presolve eliminated 8192 rows and 98 columns.
Reduced LP has 24576 rows, 16489 columns, and 901120 nonzeros.
Presolve time = 0.57 sec. (250.00 ticks)
Parallel mode: none, using 1 thread for barrier

***NOTE: Found 105 dense columns.

Number of nonzeros in lower triangle of A*A' = 24576
Using Approximate Minimum Degree ordering
Total time for automatic ordering = 0.01 sec. (3.52 ticks)
Summary statistics for Cholesky factor:
  Rows in Factor            = 24681
  Integer space required    = 884738
  Total non-zeros in factor = 917958
  Total FP ops to factor    = 93357624
 Itn      Primal Obj        Dual Obj  Prim Inf Upper Inf  Dual Inf Inf Ratio
   0   5.0214730e+08  -1.2595020e+08  4.02e+10  1.44e+07  2.46e+07  1.00e+00
   1   2.7672911e+07  -1.1639722e+07  2.23e+09  7.99e+05  2.31e+06  5.58e-01
   2   2.3435473e+07  -8.0987206e+06  1.89e+09  6.77e+05  1.60e+06  6.80e-01
   3   2.0296735e+07  -5.9571050e+06  1.64e+09  5.87e+05  1.18e+06  9.91e-01
   4   1.6041900e+07  -5.3904249e+06  1.30e+09  4.65e+05  1.07e+06  1.38e+00
   5   1.4869315e+07  -5.0403053e+06  1.20e+09  4.31e+05  9.96e+05  1.60e+00
   6   1.5969883e+07  -5.4766641e+06  1.29e+09  4.63e+05  1.09e+06  6.74e-01
   7   1.5497973e+07  -4.7793316e+06  1.25e+09  4.49e+05  9.45e+05  6.53e-01
   8   1.4888827e+07  -4.4460954e+06  1.20e+09  4.32e+05  8.77e+05  6.02e-01
   9   1.4104729e+07  -4.3049288e+06  1.14e+09  4.09e+05  8.49e+05  5.91e-01
  10   1.3329287e+07  -3.2896443e+06  1.08e+09  3.87e+05  6.43e+05  3.85e-01
  11   7.3164786e+06  -1.8087312e+06  5.98e+08  2.14e+05  3.38e+05  1.55e-01
  12   7.4092947e+06  -1.8541212e+06  6.05e+08  2.17e+05  3.48e+05  1.49e-01
  13   7.6868896e+06  -1.9387893e+06  6.27e+08  2.25e+05  3.66e+05  1.37e-01
  14   7.1628830e+06  -1.8286087e+06  5.84e+08  2.10e+05  3.45e+05  5.21e-02
  15   7.4736298e+06  -1.8699690e+06  6.09e+08  2.18e+05  3.54e+05  4.83e-02
  16   7.0755693e+06  -1.8534988e+06  5.77e+08  2.07e+05  3.50e+05  5.14e-02
  17   6.9647090e+06  -1.8370180e+06  5.68e+08  2.04e+05  3.47e+05  5.26e-02
  18   6.6267377e+06  -1.5462150e+06  5.41e+08  1.94e+05  2.87e+05  5.63e-02
  19   5.3109541e+06  -1.3255542e+06  4.37e+08  1.57e+05  2.41e+05  8.28e-02
  20   7.1180731e+06  -1.6605290e+06  5.80e+08  2.08e+05  3.13e+05  4.50e-02
  21   7.2394471e+06  -1.7831406e+06  5.89e+08  2.12e+05  3.39e+05  4.02e-02
  22   7.0613679e+06  -1.7187277e+06  5.75e+08  2.06e+05  3.26e+05  4.27e-02
  23   7.0547169e+06  -1.7181793e+06  5.75e+08  2.06e+05  3.25e+05  4.28e-02
  24   7.0481294e+06  -1.7073235e+06  5.74e+08  2.06e+05  3.23e+05  4.31e-02
  25   7.7662847e+06  -1.7568421e+06  6.31e+08  2.26e+05  3.34e+05  3.57e-02
  26   7.7611650e+06  -1.7534800e+06  6.31e+08  2.26e+05  3.33e+05  2.77e-02
  27   5.8544827e+06  -1.7369649e+06  4.79e+08  1.72e+05  3.30e+05  3.68e-02
  28   6.1638712e+06  -1.7823597e+06  5.04e+08  1.81e+05  3.39e+05  3.33e-02
  29   6.2810229e+06  -2.0095493e+06  5.13e+08  1.84e+05  3.86e+05  2.91e-02
  30   6.4894489e+06  -2.0552891e+06  5.30e+08  1.90e+05  3.96e+05  2.75e-02
  31   8.6886367e+06  -2.7270397e+06  7.06e+08  2.53e+05  5.34e+05  1.64e-02
  32   7.1943176e+06  -2.6555384e+06  5.87e+08  2.11e+05  5.19e+05  2.02e-02
  33   7.1150375e+06  -2.2802852e+06  5.80e+08  2.08e+05  4.43e+05  2.38e-02
  34   6.8079905e+06  -2.2561626e+06  5.56e+08  1.99e+05  4.38e+05  2.52e-02
  35   7.1904157e+06  -3.8455883e+06  5.86e+08  2.10e+05  7.66e+05  1.57e-02
  36   1.0108210e+07  -4.8874164e+06  8.21e+08  2.95e+05  9.77e+05  7.39e-03
  37   9.4009575e+06  -4.5331451e+06  7.64e+08  2.74e+05  9.05e+05  8.21e-03
  38   9.2539258e+06  -4.4649235e+06  7.51e+08  2.70e+05  8.93e+05  6.98e-03
  39   9.2191462e+06  -4.4061881e+06  7.49e+08  2.69e+05  8.81e+05  7.11e-03
  40   7.1029805e+06  -4.1707082e+06  5.78e+08  2.07e+05  8.33e+05  9.36e-03
  41   6.9678515e+06  -3.7948125e+06  5.67e+08  2.04e+05  7.56e+05  1.00e-02
  42   7.4562574e+06  -3.8804454e+06  6.06e+08  2.18e+05  7.74e+05  9.17e-03
  43   7.4900063e+06  -3.9414937e+06  6.09e+08  2.19e+05  7.87e+05  8.95e-03
  44   7.7180182e+06  -3.9495464e+06  6.27e+08  2.25e+05  7.88e+05  8.57e-03
  45   7.7600201e+06  -4.0037668e+06  6.30e+08  2.26e+05  8.01e+05  7.71e-03
  46   6.7102105e+06  -3.4905739e+06  5.45e+08  1.96e+05  6.97e+05  8.59e-03
  47   6.0046437e+06  -2.8917092e+06  4.88e+08  1.75e+05  5.79e+05  7.04e-03
  48   5.5769577e+06  -2.8315709e+06  4.54e+08  1.63e+05  5.67e+05  7.72e-03
  49   5.8028377e+06  -2.9060188e+06  4.72e+08  1.69e+05  5.82e+05  7.21e-03
  50   6.6897262e+06  -2.9693038e+06  5.43e+08  1.95e+05  5.95e+05  6.13e-03
  51   6.7076130e+06  -3.0114983e+06  5.44e+08  1.95e+05  6.04e+05  5.97e-03
  52   7.0008701e+06  -3.0277654e+06  5.68e+08  2.04e+05  6.07e+05  5.69e-03
  53   7.2630730e+06  -3.1589329e+06  5.89e+08  2.11e+05  6.34e+05  5.22e-03
  54   7.5091395e+06  -3.2842799e+06  6.08e+08  2.18e+05  6.61e+05  4.85e-03
  55   7.4108121e+06  -3.2664592e+06  6.00e+08  2.15e+05  6.57e+05  4.94e-03
  56   7.3599706e+06  -3.2644858e+06  5.96e+08  2.14e+05  6.57e+05  4.98e-03
  57   7.3506234e+06  -3.2599842e+06  5.96e+08  2.14e+05  6.56e+05  4.99e-03
  58   7.3402532e+06  -3.1337450e+06  5.95e+08  2.13e+05  6.30e+05  5.21e-03
  59   7.0850837e+06  -3.0729875e+06  5.74e+08  2.06e+05  6.18e+05  5.51e-03
  60   8.3202647e+06  -3.1057595e+06  6.73e+08  2.42e+05  6.25e+05  4.65e-03
  61   7.7045181e+06  -2.5994140e+06  6.24e+08  2.24e+05  5.20e+05  6.15e-03
  62   7.6345379e+06  -2.4775803e+06  6.18e+08  2.22e+05  4.95e+05  6.54e-03
  63   7.8632645e+06  -2.5037645e+06  6.37e+08  2.28e+05  5.00e+05  6.29e-03
  64   7.3421743e+06  -2.3854790e+06  5.95e+08  2.14e+05  4.75e+05  7.03e-03
  65   7.1550499e+06  -2.2966598e+06  5.80e+08  2.08e+05  4.57e+05  7.49e-03
  66   6.9478122e+06  -2.0819382e+06  5.64e+08  2.02e+05  4.13e+05  8.64e-03
  67   6.8820592e+06  -2.0776132e+06  5.58e+08  2.00e+05  4.12e+05  8.74e-03
  68   5.4485982e+06  -2.0603035e+06  4.44e+08  1.59e+05  4.08e+05  1.11e-02
  69   5.4845805e+06  -2.1119964e+06  4.47e+08  1.61e+05  4.19e+05  1.07e-02
  70   6.0521288e+06  -2.3030409e+06  4.93e+08  1.77e+05  4.59e+05  8.93e-03
  71   5.3719953e+06  -2.0457803e+06  4.38e+08  1.57e+05  4.05e+05  1.15e-02
  72   4.8527494e+06  -1.8560102e+06  3.96e+08  1.42e+05  3.67e+05  1.29e-02
  73   4.7474987e+06  -1.8409988e+06  3.88e+08  1.39e+05  3.64e+05  1.33e-02
  74   4.7998150e+06  -1.9104969e+06  3.92e+08  1.41e+05  3.78e+05  1.26e-02
  75   4.5723701e+06  -1.8441948e+06  3.74e+08  1.34e+05  3.65e+05  1.38e-02
  76   4.3671676e+06  -1.8427194e+06  3.58e+08  1.28e+05  3.64e+05  1.44e-02
  77   4.3838098e+06  -1.8695809e+06  3.59e+08  1.29e+05  3.71e+05  1.41e-02
  78   4.6768799e+06  -1.8716280e+06  3.82e+08  1.37e+05  3.72e+05  1.32e-02
  79   4.4358810e+06  -1.8513913e+06  3.63e+08  1.30e+05  3.67e+05  1.40e-02
  80   4.1631854e+06  -1.7716189e+06  3.41e+08  1.22e+05  3.51e+05  1.57e-02
  81   3.9963088e+06  -1.7343194e+06  3.28e+08  1.18e+05  3.43e+05  1.67e-02
  82   3.9208690e+06  -1.7107321e+06  3.21e+08  1.15e+05  3.39e+05  1.42e-02
  83   3.8906923e+06  -1.6012210e+06  3.19e+08  1.14e+05  3.17e+05  1.32e-02
  84   3.8974036e+06  -1.6054382e+06  3.19e+08  1.15e+05  3.21e+05  1.28e-02
  85   4.4728621e+06  -1.6138152e+06  3.65e+08  1.31e+05  3.23e+05  1.11e-02
  86   1.8136361e+06  -1.4452294e+06  1.52e+08  5.47e+04  2.87e+05  2.64e-02
  87   1.5510997e+06  -1.3253319e+06  1.30e+08  4.68e+04  2.64e+05  2.93e-02
  88   1.6938482e+06  -1.3560388e+06  1.42e+08  5.09e+04  2.70e+05  2.59e-02
  89   1.0505140e+06  -9.0844518e+05  8.81e+07  3.16e+04  1.81e+05  3.04e-02
  90   8.9585862e+05  -8.4235570e+05  7.57e+07  2.72e+04  1.67e+05  3.85e-02
  91   9.4099797e+05  -8.8994698e+05  7.94e+07  2.85e+04  1.77e+05  3.47e-02
  92   8.3305407e+05  -8.3488459e+05  7.01e+07  2.52e+04  1.66e+05  3.81e-02
  93   8.3442859e+05  -8.3877013e+05  7.02e+07  2.52e+04  1.67e+05  3.78e-02
  94   5.8726624e+05  -7.9919191e+05  4.93e+07  1.77e+04  1.59e+05  5.22e-02
  95   4.4096772e+05  -6.4622805e+05  3.68e+07  1.32e+04  1.29e+05  6.52e-02
  96   4.1131136e+05  -6.1485118e+05  3.36e+07  1.21e+04  1.23e+05  6.54e-02
  97   4.0266619e+05  -5.5573314e+05  3.30e+07  1.18e+04  1.12e+05  7.32e-02
  98   4.1242461e+05  -5.6862876e+05  3.37e+07  1.21e+04  1.14e+05  6.96e-02
  99   4.1142909e+05  -5.6606665e+05  3.34e+07  1.20e+04  1.14e+05  6.90e-02
 100   4.0335318e+05  -5.4854714e+05  3.28e+07  1.18e+04  1.10e+05  7.28e-02
 101   2.9577175e+05  -4.7752819e+05  2.25e+07  8.08e+03  9.73e+04  8.43e-02
 102   3.0508319e+05  -4.7976514e+05  2.32e+07  8.31e+03  9.77e+04  8.15e-02
 103   3.1999078e+05  -4.8366225e+05  2.42e+07  8.69e+03  9.86e+04  7.73e-02
 104   2.6678046e+05  -4.0633794e+05  2.03e+07  7.28e+03  8.26e+04  1.02e-01
 105   2.2432326e+05  -3.8507742e+05  1.73e+07  6.21e+03  7.80e+04  1.26e-01
 106   2.2448855e+05  -3.8493514e+05  1.73e+07  6.21e+03  7.80e+04  1.25e-01
 107   2.4249410e+05  -4.3340802e+05  1.85e+07  6.65e+03  8.84e+04  1.03e-01
 108   2.3474584e+05  -3.8663700e+05  1.80e+07  6.46e+03  7.83e+04  1.18e-01
 109   2.5388544e+05  -4.8699038e+05  1.93e+07  6.93e+03  1.00e+05  8.94e-02
 110   2.2375205e+05  -4.1307194e+05  1.70e+07  6.09e+03  8.53e+04  1.01e-01
 111   2.0371570e+05  -3.5282790e+05  1.52e+07  5.44e+03  7.39e+04  1.08e-01
 112   1.4742420e+05  -3.2618106e+05  1.10e+07  3.96e+03  6.83e+04  1.52e-01
 113   1.3488421e+05  -2.7591772e+05  1.01e+07  3.64e+03  5.78e+04  1.78e-01
 114   1.3200812e+05  -2.7555407e+05  9.96e+06  3.57e+03  5.78e+04  1.81e-01
 115   1.1251694e+05  -2.6345444e+05  8.66e+06  3.11e+03  5.50e+04  2.19e-01
 116   1.1949420e+05  -2.7665681e+05  9.12e+06  3.27e+03  5.71e+04  1.97e-01
 117   1.1920267e+05  -2.6912846e+05  9.10e+06  3.27e+03  5.56e+04  2.03e-01
 118   1.0758414e+05  -2.6096194e+05  8.23e+06  2.95e+03  5.37e+04  2.27e-01
 119   1.0799561e+05  -2.5635227e+05  8.23e+06  2.95e+03  5.38e+04  2.14e-01
 120   1.0615006e+05  -2.3511799e+05  7.54e+06  2.71e+03  5.04e+04  1.83e-01
 121   1.0084636e+05  -2.2846345e+05  7.14e+06  2.56e+03  4.91e+04  1.93e-01
 122   1.0075051e+05  -2.2663064e+05  7.13e+06  2.56e+03  4.86e+04  1.95e-01
 123   1.2537361e+05  -2.4188087e+05  8.50e+06  3.05e+03  5.23e+04  1.48e-01
 124   1.2181424e+05  -2.3974816e+05  8.28e+06  2.97e+03  5.18e+04  1.53e-01
 125   1.2143921e+05  -2.3965640e+05  8.15e+06  2.93e+03  5.18e+04  1.53e-01
 126   1.1839797e+05  -2.3069825e+05  7.97e+06  2.86e+03  4.97e+04  1.63e-01
 127   1.1458824e+05  -2.2915729e+05  7.75e+06  2.78e+03  4.93e+04  1.68e-01
 128   9.3503331e+04  -2.0363446e+05  6.17e+06  2.21e+03  4.41e+04  2.07e-01
 129   1.2499741e+05  -2.2718283e+05  7.57e+06  2.72e+03  5.07e+04  1.36e-01
 130   1.1682613e+05  -2.1961744e+05  7.10e+06  2.55e+03  4.90e+04  1.48e-01
 131   1.0859114e+05  -2.1348595e+05  6.58e+06  2.36e+03  4.76e+04  1.58e-01
 132   1.0552146e+05  -1.9859739e+05  6.40e+06  2.30e+03  4.42e+04  1.71e-01
 133   1.0065657e+05  -1.9744413e+05  6.09e+06  2.18e+03  4.40e+04  1.78e-01
 134   9.9522609e+04  -1.9300041e+05  6.00e+06  2.16e+03  4.30e+04  1.81e-01
 135   9.8382496e+04  -1.9251593e+05  5.89e+06  2.11e+03  4.30e+04  1.82e-01
 136   9.8453967e+04  -1.9252061e+05  5.89e+06  2.11e+03  4.32e+04  1.78e-01
 137   9.5574999e+04  -1.7550230e+05  5.72e+06  2.05e+03  3.93e+04  1.96e-01
 138   9.3063544e+04  -1.7369443e+05  5.58e+06  2.00e+03  3.89e+04  2.01e-01
 139   9.2175799e+04  -1.6955176e+05  5.52e+06  1.98e+03  3.80e+04  2.06e-01
 140   8.5506629e+04  -1.6549393e+05  5.11e+06  1.83e+03  3.71e+04  2.22e-01
 141   8.1553753e+04  -1.6350101e+05  4.83e+06  1.73e+03  3.67e+04  2.29e-01
 142   8.1157914e+04  -1.6303059e+05  4.81e+06  1.73e+03  3.66e+04  2.31e-01
 143   8.1097679e+04  -1.5966647e+05  4.81e+06  1.72e+03  3.59e+04  2.33e-01
 144   7.5362880e+04  -1.5450624e+05  4.49e+06  1.61e+03  3.47e+04  2.51e-01
 145   7.5126678e+04  -1.5064564e+05  4.48e+06  1.61e+03  3.39e+04  2.54e-01
 146   6.6672427e+04  -1.3718036e+05  3.97e+06  1.42e+03  3.09e+04  2.86e-01
 147   6.7221281e+04  -1.4601646e+05  3.99e+06  1.43e+03  3.32e+04  2.66e-01
 148   6.6827645e+04  -1.3908145e+05  3.97e+06  1.43e+03  3.18e+04  2.77e-01
 149   6.4094815e+04  -1.2483275e+05  3.84e+06  1.38e+03  2.84e+04  3.29e-01
 150   5.9694754e+04  -1.1913384e+05  3.56e+06  1.28e+03  2.71e+04  3.52e-01
 151   5.2188650e+04  -1.0488914e+05  3.12e+06  1.12e+03  2.38e+04  3.96e-01
 152   4.4399835e+04  -9.5480523e+04  2.70e+06  9.69e+02  2.16e+04  4.68e-01
 153   4.5457527e+04  -1.0087599e+05  2.75e+06  9.87e+02  2.30e+04  4.32e-01
 154   3.4396992e+04  -9.0897938e+04  2.14e+06  7.68e+02  2.07e+04  5.42e-01
 155   3.2110211e+04  -7.8964967e+04  2.03e+06  7.28e+02  1.79e+04  6.74e-01
 156   3.3347699e+04  -8.7631196e+04  2.09e+06  7.49e+02  2.02e+04  5.89e-01
 157   3.7044340e+04  -8.8164611e+04  2.24e+06  8.02e+02  2.03e+04  5.35e-01
 158   3.5596907e+04  -8.4101489e+04  2.17e+06  7.78e+02  1.93e+04  5.83e-01
 159   3.5017360e+04  -7.8267263e+04  2.14e+06  7.68e+02  1.77e+04  6.45e-01
 160   3.5750795e+04  -7.8713246e+04  2.17e+06  7.80e+02  1.78e+04  6.31e-01
 161   3.4766694e+04  -7.8376592e+04  2.13e+06  7.64e+02  1.77e+04  6.47e-01
 162   2.9410872e+04  -7.4343302e+04  1.88e+06  6.73e+02  1.68e+04  7.76e-01
 163   2.9057420e+04  -6.9101075e+04  1.86e+06  6.67e+02  1.54e+04  8.52e-01
 164   2.9024607e+04  -6.8807427e+04  1.86e+06  6.67e+02  1.54e+04  8.57e-01
 165   2.8860541e+04  -6.5188648e+04  1.85e+06  6.63e+02  1.47e+04  8.93e-01
 166   2.7754475e+04  -6.4236844e+04  1.80e+06  6.45e+02  1.44e+04  9.35e-01
 167   2.7314950e+04  -6.1379363e+04  1.78e+06  6.37e+02  1.37e+04  9.92e-01
 168   3.0315239e+04  -5.8306456e+04  1.76e+06  6.33e+02  1.37e+04  8.40e-01
 169   2.7584065e+04  -5.3347443e+04  1.59e+06  5.71e+02  1.25e+04  8.90e-01
 170   2.7126253e+04  -5.1995517e+04  1.57e+06  5.64e+02  1.22e+04  9.22e-01
 171   2.7863667e+04  -5.0967290e+04  1.57e+06  5.65e+02  1.23e+04  8.64e-01
 172   2.7069536e+04  -5.0784774e+04  1.54e+06  5.54e+02  1.22e+04  8.86e-01
 173   2.1254414e+04  -4.6221686e+04  1.28e+06  4.59e+02  1.09e+04  1.10e+00
 174   2.4299084e+04  -5.0134950e+04  1.39e+06  4.99e+02  1.23e+04  8.94e-01
 175   2.3807721e+04  -4.9948022e+04  1.37e+06  4.92e+02  1.22e+04  9.11e-01
 176   2.3781511e+04  -4.7182122e+04  1.37e+06  4.92e+02  1.14e+04  9.85e-01
 177   2.1460812e+04  -4.4111885e+04  1.27e+06  4.57e+02  1.05e+04  1.14e+00
 178   2.0417177e+04  -4.3638169e+04  1.23e+06  4.41e+02  1.03e+04  1.19e+00
 179   1.6262465e+04  -4.2619831e+04  9.87e+05  3.54e+02  1.01e+04  1.32e+00
 180   1.5266410e+04  -4.1600983e+04  9.39e+05  3.37e+02  9.79e+03  1.40e+00
 181   1.6005249e+04  -4.3249519e+04  9.68e+05  3.47e+02  1.04e+04  1.29e+00
 182   1.6370714e+04  -4.4902040e+04  9.81e+05  3.52e+02  1.10e+04  1.18e+00
 183   1.4489468e+04  -3.1198171e+04  8.18e+05  2.93e+02  8.22e+03  1.37e+00
 184   8.1934612e+03  -2.2120508e+04  4.07e+05  1.46e+02  6.01e+03  1.88e+00
 185   7.5163703e+03  -1.9629595e+04  3.68e+05  1.32e+02  5.35e+03  2.07e+00
 186   7.5033377e+03  -1.9342774e+04  3.63e+05  1.30e+02  5.29e+03  2.07e+00
 187   7.4756872e+03  -1.9325512e+04  3.62e+05  1.30e+02  5.29e+03  2.07e+00
 188   6.9111835e+03  -1.7514625e+04  3.32e+05  1.19e+02  4.76e+03  2.28e+00
 189   6.9756874e+03  -1.7543463e+04  3.34e+05  1.20e+02  4.77e+03  2.27e+00
 190   6.4618440e+03  -1.6680986e+04  3.08e+05  1.10e+02  4.53e+03  2.41e+00
 191   6.4544103e+03  -1.4724275e+04  3.07e+05  1.10e+02  4.02e+03  2.66e+00
 192   4.6016964e+03  -1.4553740e+04  2.15e+05  7.73e+01  3.97e+03  2.83e+00
 193   2.6020963e+03  -1.3468732e+04  1.09e+05  3.93e+01  3.69e+03  3.30e+00
 194   2.6083347e+03  -1.3513179e+04  1.10e+05  3.93e+01  3.72e+03  3.29e+00
 195   2.5952856e+03  -1.2773140e+04  1.09e+05  3.92e+01  3.59e+03  3.51e+00
 196   2.5826523e+03  -1.1194518e+04  1.06e+05  3.79e+01  3.22e+03  3.79e+00
 197   2.5683721e+03  -1.1153743e+04  1.05e+05  3.77e+01  3.21e+03  3.82e+00
 198   2.4530341e+03  -1.1070730e+04  1.02e+05  3.67e+01  3.17e+03  3.96e+00
 199   2.4817570e+03  -1.1089968e+04  1.03e+05  3.69e+01  3.19e+03  3.92e+00
 200   2.5305640e+03  -1.1414867e+04  1.04e+05  3.73e+01  3.37e+03  3.75e+00
 201   2.5215802e+03  -1.1403104e+04  1.04e+05  3.72e+01  3.36e+03  3.76e+00
 202   2.3933123e+03  -1.0380817e+04  9.28e+04  3.33e+01  3.10e+03  4.07e+00
 203   2.0313896e+03  -1.0361097e+04  8.32e+04  2.98e+01  3.10e+03  4.50e+00
 204   1.3815287e+03  -7.5882998e+03  2.05e+04  7.36e+00  2.34e+03  5.90e+00
 205   7.1529514e+02  -4.6544259e+03  4.47e+03  1.61e+00  1.51e+03  9.36e+00
 206   7.1632236e+02  -4.3716593e+03  4.32e+03  1.55e+00  1.57e+03  9.92e+00
 207   7.1643746e+02  -3.8833383e+03  4.32e+03  1.55e+00  1.45e+03  1.11e+01
 208   4.4927128e+02  -4.6916095e+02  3.19e+02  1.14e-01  3.13e+02  5.65e+01
 209   4.4372460e+02  -4.1011880e+02  2.92e+02  1.05e-01  3.68e+02  6.12e+01
 210   4.4075188e+02  -3.8404681e+02  2.80e+02  1.01e-01  4.68e+02  6.36e+01
 211   3.4113398e+02   1.4740762e+02  1.52e+01  5.45e-03  1.21e+02  2.47e+02
 212   3.3202702e+02   2.9223661e+02  1.32e+00  4.74e-04  2.41e+01  1.20e+03
 213   3.3111809e+02   3.1506416e+02  1.00e-01  3.59e-05  2.22e+01  3.04e+03
 214   3.3068966e+02   3.2987228e+02  5.01e-03  1.80e-06  1.78e+01  5.97e+04
 215   3.3067284e+02   3.3059624e+02  3.40e-04  1.22e-07  3.58e+02  7.76e+05
 216   3.3066721e+02   3.3066165e+02  2.56e-05  9.19e-09  5.08e+01  1.07e+07
 217   3.3066690e+02   3.3066598e+02  8.30e-06  2.98e-09  1.05e+02  7.27e+07
 218   3.3066683e+02   3.3066632e+02  4.08e-06  1.39e-09  5.98e+01  1.32e+08
 219   3.3066681e+02   3.3066643e+02  2.69e-06  6.91e-10  4.94e+01  1.75e+08
 220   3.3066680e+02   3.3066646e+02  1.89e-06  4.86e-10  4.52e+01  1.94e+08
 221   3.3066680e+02   3.3066648e+02  2.14e-06  3.52e-10  4.19e+01  2.08e+08
 222   3.3066679e+02   3.3066650e+02  2.12e-06  2.55e-10  3.91e+01  2.29e+08
 223   3.3066679e+02   3.3066651e+02  1.97e-06  1.93e-10  3.70e+01  2.41e+08
 224   3.3066678e+02   3.3066652e+02  1.31e-06  1.28e-10  3.56e+01  2.54e+08
 225   3.3066677e+02   3.3066655e+02  1.21e-06  9.73e-11  3.33e+01  2.82e+08
 226   3.3066677e+02   3.3066657e+02  1.09e-06  7.42e-11  1.03e+02  3.30e+08
 227   3.3066677e+02   3.3066659e+02  7.54e-07  5.22e-11  9.30e+01  3.74e+08
 228   3.3066676e+02   3.3066662e+02  6.50e-07  3.73e-11  7.76e+01  4.77e+08
 229   3.3066676e+02   3.3066667e+02  5.27e-07  2.19e-11  4.81e+01  8.29e+08
 230   3.3066675e+02   3.3066670e+02  3.92e-07  1.25e-11  3.07e+01  1.45e+09
 231   3.3066675e+02   3.3066672e+02  3.22e-07  6.72e-12  2.07e+01  2.62e+09
 232   3.3066675e+02   3.3066673e+02  3.99e-07  3.66e-12  4.70e+01  5.08e+09
 233   3.3066675e+02   3.3066673e+02  4.02e-07  4.06e-12  4.42e+01  5.09e+09
Barrier time = 25.71 sec. (48041.47 ticks)

Total time on 1 threads = 25.72 sec. (48041.47 ticks)
Solver name: CPLEX
Solve time: 25.716484302
Termination status: OPTIMAL
Result count: 1
Primal status: FEASIBLE_POINT
Dual status: FEASIBLE_POINT
